0 20 0 0 0 0 0 0 2 0 0 0 0 0 0 0 0 0
20 0 16 0 0 2 0 0 0 0 0 0 0 0 0 0 0 0
0 16 0 18 4 0 0 0 0 0 0 0 0 12 0 0 0 0
0 0 18 0 4 0 0 0 0 0 0 6 0 0 0 0 0 0
0 0 4 4 0 2 0 0 2 0 10 0 0 0 0 0 0 0
0 2 0 0 2 0 2 0 0 0 0 0 0 0 0 0 0 0
0 0 0 0 0 2 0 1 0 0 0 0 0 0 0 0 0 0
0 0 0 0 0 0 1 0 1 0 0 0 0 0 0 0 0 0
2 0 0 0 2 0 0 1 0 8 0 0 0 0 0 0 0 0
0 0 0 0 0 0 0 0 8 0 20 0 0 0 0 0 0 2
0 0 0 0 10 0 0 0 0 20 0 16 0 0 2 0 0 0
0 0 0 6 0 0 0 0 0 0 16 0 18 4 0 0 0 0
0 0 0 0 0 0 0 0 0 0 0 18 0 4 0 0 0 0
0 0 12 0 0 0 0 0 0 0 0 4 4 0 2 0 0 2
0 0 0 0 0 0 0 0 0 0 2 0 0 2 0 2 0 0
0 0 0 0 0 0 0 0 0 0 0 0 0 0 2 0 1 0
0 0 0 0 0 0 0 0 0 0 0 0 0 0 0 1 0 1
0 0 0 0 0 0 0 0 0 2 0 0 0 2 0 0 1 0